Ti1 O2                                  
   1.00000000000000     
     4.9465450000000004   -1.4985500000000000    0.0000000000000000
     4.9465450000000004    1.4985500000000000    0.0000000000000000
     4.4925610000000002    0.0000000000000000    2.5555539999999999
   Ti   O 
     1     2
Direct
  0.0000000000000000  0.0000000000000000  0.0000000000000000
  0.2671459999999968  0.2671459999999968  0.2671459999999968
  0.7328540000000032  0.7328540000000032  0.7328540000000032
 
  0.00000000E+00  0.00000000E+00  0.00000000E+00
  0.00000000E+00  0.00000000E+00  0.00000000E+00
  0.00000000E+00  0.00000000E+00  0.00000000E+00
