Ti1 O2
1.0
4.946545 -1.498550 0.000000
4.946545 1.498550 0.000000
4.492561 0.000000 2.555554
Ti O
1 2
direct
0.000000 0.000000 0.000000 Ti
0.267146 0.267146 0.267146 O
0.732854 0.732854 0.732854 O
